\ LP format - for model browsing. Use MPS format to capture full model detail.
Maximize
  25 pax_1_2 + 25 pax_1_3 + 25 pax_1_4 + 15 pax_1_5 + 20 pax_1_6
   + 10 pax_1_7 + 40 pax_1_8 + 25 pax_1_9 + 5 pax_1_10 + 35 pax_1_11
   + 40 pax_1_12 + 25 pax_1_13 + 5 pax_1_14 + 40 pax_2_3 + 15 pax_2_4
   + 40 pax_2_5 + 40 pax_2_6 + 35 pax_2_7 + 30 pax_2_8 + 15 pax_2_9
   + 45 pax_2_10 + 35 pax_2_11 + 10 pax_2_12 + 10 pax_2_13 + 15 pax_2_14
   + 5 pax_3_4 + 15 pax_3_5 + 15 pax_3_6 + 45 pax_3_7 + 35 pax_3_8
   + 35 pax_3_9 + 25 pax_3_10 + 5 pax_3_11 + 25 pax_3_12 + 10 pax_3_13
   + 35 pax_3_14 + 40 pax_4_5 + 45 pax_4_6 + 5 pax_4_7 + 5 pax_4_8
   + 45 pax_4_9 + 40 pax_4_10 + 5 pax_4_11 + 35 pax_4_12 + 40 pax_4_13
   + 40 pax_4_14 + 25 pax_5_6 + 20 pax_5_7 + 45 pax_5_8 + 10 pax_5_9
   + 15 pax_5_10 + 35 pax_5_11 + 30 pax_5_12 + 15 pax_5_13 + 35 pax_5_14
   + 10 pax_6_7 + 15 pax_6_8 + 30 pax_6_9 + 20 pax_6_10 + 20 pax_6_11
   + 30 pax_6_12 + 15 pax_6_13 + 10 pax_6_14 + 30 pax_7_8 + 20 pax_7_9
   + 40 pax_7_10 + 20 pax_7_11 + 45 pax_7_12 + 35 pax_7_13 + 45 pax_7_14
   + 40 pax_8_9 + 35 pax_8_10 + 30 pax_8_11 + 10 pax_8_12 + 30 pax_8_13
   + 40 pax_8_14 + 25 pax_9_10 + 10 pax_9_11 + 15 pax_9_12 + 20 pax_9_13
   + 15 pax_9_14 + 40 pax_10_11 + 20 pax_10_12 + 15 pax_10_13
   + 40 pax_10_14 + 25 pax_11_12 + 30 pax_11_13 + 30 pax_11_14
   + 15 pax_12_13 + 35 pax_12_14 + 30 pax_13_14 - 53.3097537721314 x_1_2
   - 22.8736224741994 x_1_3 - 58.11592863517109 x_1_4
   - 111.3161688843885 x_1_5 - 41.43531374042278 x_1_6
   - 200.8892849411903 x_1_7 - 113.5351262083307 x_1_8
   - 84.30444005563112 x_1_9 - 165.3795633329262 x_1_10
   - 167.6658561962073 x_1_11 - 133.6741133296056 x_1_12
   - 185.0305083555725 x_1_13 - 78.68384022788891 x_1_14
   - 56.33913393038959 x_2_3 - 31.02991618476169 x_2_4
   - 109.8539086273274 x_2_5 - 19.75112277810351 x_2_6
   - 147.9156492179202 x_2_7 - 79.56772072849552 x_2_8
   - 79.02792707047203 x_2_9 - 115.8416843014871 x_2_10
   - 174.5443683761895 x_2_11 - 82.3219866212321 x_2_12
   - 131.7208064352531 x_2_13 - 130.0673495000752 x_2_14
   - 48.17324631300063 x_3_4 - 88.96745886507104 x_3_5
   - 52.2070624932194 x_3_6 - 202.5940959107756 x_3_7
   - 99.1740074502876 x_3_8 - 63.26668601954645 x_3_9
   - 172.1516356016423 x_3_10 - 144.8268574309223 x_3_11
   - 129.0038309719768 x_3_12 - 184.6250361882169 x_3_13
   - 75.85064917607417 x_3_14 - 78.98804272600988 x_4_5
   - 45.64218194831069 x_4_6 - 158.7650253327169 x_4_7
   - 56.31933823441728 x_4_8 - 48.2930326785602 x_4_9
   - 135.4796074447418 x_4_10 - 143.9569281355921 x_4_11
   - 81.42865701662183 x_4_12 - 139.1240228731101 x_4_13
   - 123.3119733381226 x_4_14 - 121.3670176985626 x_5_6
   - 212.1757419716488 x_5_7 - 68.55098245529278 x_5_8
   - 30.88513742828578 x_5_9 - 203.3323699613804 x_5_10
   - 65.33687809182878 x_5_11 - 128.334685976644 x_5_12
   - 188.6587585335542 x_5_13 - 131.1651453153662 x_5_14
   - 160.9563738400035 x_6_7 - 98.35765029515966 x_6_8
   - 90.63704395616699 x_6_9 - 123.9599886844898 x_6_10
   - 184.5779560874457 x_6_11 - 100.6832628488314 x_6_12
   - 146.5951290877344 x_6_13 - 120.1174379239047 x_6_14
   - 144.0383441634075 x_7_8 - 191.1510432548123 x_7_9
   - 53.12097388386129 x_7_10 - 270.3862736411987 x_7_11
   - 83.94735009004859 x_7_12 - 24.5890321241768 x_7_13
   - 277.7768944976737 x_7_14 - 53.69665368804429 x_8_9
   - 140.6883877313288 x_8_10 - 127.353576825424 x_8_11
   - 60.76578166845902 x_8_12 - 120.2679736704606 x_8_13
   - 168.1555679960486 x_8_14 - 177.097291150209 x_9_10
   - 95.6672049998801 x_9_11 - 107.6046509644026 x_9_12
   - 168.6822486074791 x_9_13 - 119.606487131485 x_9_14
   - 266.6778963333372 x_10_11 - 83.46724327291339 x_10_12
   - 58.23764426060094 x_10_13 - 244.0305428117845 x_10_14
   - 188.0479204892451 x_11_12 - 246.1211570477689 x_11_13
   - 161.1423381534856 x_11_14 - 61.07793716351426 x_12_13
   - 204.6393539485408 x_12_14 - 260.3484588945553 x_13_14 - 150 nt_1_2
   - 150 nt_1_3 - 150 nt_1_4 - 150 nt_1_5 - 150 nt_1_6 - 150 nt_1_7
   - 150 nt_1_8 - 150 nt_1_9 - 150 nt_1_10 - 150 nt_1_11 - 150 nt_1_12
   - 150 nt_1_13 - 150 nt_1_14 - 150 nt_2_3 - 150 nt_2_4 - 150 nt_2_5
   - 150 nt_2_6 - 150 nt_2_7 - 150 nt_2_8 - 150 nt_2_9 - 150 nt_2_10
   - 150 nt_2_11 - 150 nt_2_12 - 150 nt_2_13 - 150 nt_2_14 - 150 nt_3_4
   - 150 nt_3_5 - 150 nt_3_6 - 150 nt_3_7 - 150 nt_3_8 - 150 nt_3_9
   - 150 nt_3_10 - 150 nt_3_11 - 150 nt_3_12 - 150 nt_3_13 - 150 nt_3_14
   - 150 nt_4_5 - 150 nt_4_6 - 150 nt_4_7 - 150 nt_4_8 - 150 nt_4_9
   - 150 nt_4_10 - 150 nt_4_11 - 150 nt_4_12 - 150 nt_4_13 - 150 nt_4_14
   - 150 nt_5_6 - 150 nt_5_7 - 150 nt_5_8 - 150 nt_5_9 - 150 nt_5_10
   - 150 nt_5_11 - 150 nt_5_12 - 150 nt_5_13 - 150 nt_5_14 - 150 nt_6_7
   - 150 nt_6_8 - 150 nt_6_9 - 150 nt_6_10 - 150 nt_6_11 - 150 nt_6_12
   - 150 nt_6_13 - 150 nt_6_14 - 150 nt_7_8 - 150 nt_7_9 - 150 nt_7_10
   - 150 nt_7_11 - 150 nt_7_12 - 150 nt_7_13 - 150 nt_7_14 - 150 nt_8_9
   - 150 nt_8_10 - 150 nt_8_11 - 150 nt_8_12 - 150 nt_8_13 - 150 nt_8_14
   - 150 nt_9_10 - 150 nt_9_11 - 150 nt_9_12 - 150 nt_9_13 - 150 nt_9_14
   - 150 nt_10_11 - 150 nt_10_12 - 150 nt_10_13 - 150 nt_10_14
   - 150 nt_11_12 - 150 nt_11_13 - 150 nt_11_14 - 150 nt_12_13
   - 150 nt_12_14 - 150 nt_13_14 - 3 nv_1_2 - 3 nv_1_3 - 3 nv_1_4
   - 3 nv_1_5 - 3 nv_1_6 - 3 nv_1_7 - 3 nv_1_8 - 3 nv_1_9 - 3 nv_1_10
   - 3 nv_1_11 - 3 nv_1_12 - 3 nv_1_13 - 3 nv_1_14 - 3 nv_2_3 - 3 nv_2_4
   - 3 nv_2_5 - 3 nv_2_6 - 3 nv_2_7 - 3 nv_2_8 - 3 nv_2_9 - 3 nv_2_10
   - 3 nv_2_11 - 3 nv_2_12 - 3 nv_2_13 - 3 nv_2_14 - 3 nv_3_4 - 3 nv_3_5
   - 3 nv_3_6 - 3 nv_3_7 - 3 nv_3_8 - 3 nv_3_9 - 3 nv_3_10 - 3 nv_3_11
   - 3 nv_3_12 - 3 nv_3_13 - 3 nv_3_14 - 3 nv_4_5 - 3 nv_4_6 - 3 nv_4_7
   - 3 nv_4_8 - 3 nv_4_9 - 3 nv_4_10 - 3 nv_4_11 - 3 nv_4_12 - 3 nv_4_13
   - 3 nv_4_14 - 3 nv_5_6 - 3 nv_5_7 - 3 nv_5_8 - 3 nv_5_9 - 3 nv_5_10
   - 3 nv_5_11 - 3 nv_5_12 - 3 nv_5_13 - 3 nv_5_14 - 3 nv_6_7 - 3 nv_6_8
   - 3 nv_6_9 - 3 nv_6_10 - 3 nv_6_11 - 3 nv_6_12 - 3 nv_6_13 - 3 nv_6_14
   - 3 nv_7_8 - 3 nv_7_9 - 3 nv_7_10 - 3 nv_7_11 - 3 nv_7_12 - 3 nv_7_13
   - 3 nv_7_14 - 3 nv_8_9 - 3 nv_8_10 - 3 nv_8_11 - 3 nv_8_12 - 3 nv_8_13
   - 3 nv_8_14 - 3 nv_9_10 - 3 nv_9_11 - 3 nv_9_12 - 3 nv_9_13 - 3 nv_9_14
   - 3 nv_10_11 - 3 nv_10_12 - 3 nv_10_13 - 3 nv_10_14 - 3 nv_11_12
   - 3 nv_11_13 - 3 nv_11_14 - 3 nv_12_13 - 3 nv_12_14 - 3 nv_13_14
Subject To
 max_tubes_1_2: - 5 x_1_2 + nt_1_2 <= 0
 max_tubes_1_3: - 5 x_1_3 + nt_1_3 <= 0
 max_tubes_1_4: - 4 x_1_4 + nt_1_4 <= 0
 max_tubes_1_5: - 3 x_1_5 + nt_1_5 <= 0
 max_tubes_1_6: - 5 x_1_6 + nt_1_6 <= 0
 max_tubes_1_7: - 9 x_1_7 + nt_1_7 <= 0
 max_tubes_1_8: - 8 x_1_8 + nt_1_8 <= 0
 max_tubes_1_9: - 3 x_1_9 + nt_1_9 <= 0
 max_tubes_1_10: - 5 x_1_10 + nt_1_10 <= 0
 max_tubes_1_11: - 2 x_1_11 + nt_1_11 <= 0
 max_tubes_1_12: - 2 x_1_12 + nt_1_12 <= 0
 max_tubes_1_13: - 5 x_1_13 + nt_1_13 <= 0
 max_tubes_1_14: - 5 x_1_14 + nt_1_14 <= 0
 max_tubes_2_3: - 7 x_2_3 + nt_2_3 <= 0
 max_tubes_2_4: - 6 x_2_4 + nt_2_4 <= 0
 max_tubes_2_5: - 7 x_2_5 + nt_2_5 <= 0
 max_tubes_2_6: - 6 x_2_6 + nt_2_6 <= 0
 max_tubes_2_7: - 6 x_2_7 + nt_2_7 <= 0
 max_tubes_2_8: - 3 x_2_8 + nt_2_8 <= 0
 max_tubes_2_9: - 9 x_2_9 + nt_2_9 <= 0
 max_tubes_2_10: - 3 x_2_10 + nt_2_10 <= 0
 max_tubes_2_11: - 3 x_2_11 + nt_2_11 <= 0
 max_tubes_2_12: - 7 x_2_12 + nt_2_12 <= 0
 max_tubes_2_13: - 3 x_2_13 + nt_2_13 <= 0
 max_tubes_2_14: - 5 x_2_14 + nt_2_14 <= 0
 max_tubes_3_4: - 5 x_3_4 + nt_3_4 <= 0
 max_tubes_3_5: - 8 x_3_5 + nt_3_5 <= 0
 max_tubes_3_6: - 7 x_3_6 + nt_3_6 <= 0
 max_tubes_3_7: - 7 x_3_7 + nt_3_7 <= 0
 max_tubes_3_8: - 8 x_3_8 + nt_3_8 <= 0
 max_tubes_3_9: - 9 x_3_9 + nt_3_9 <= 0
 max_tubes_3_10: - 9 x_3_10 + nt_3_10 <= 0
 max_tubes_3_11: - 4 x_3_11 + nt_3_11 <= 0
 max_tubes_3_12: - 6 x_3_12 + nt_3_12 <= 0
 max_tubes_3_13: - 7 x_3_13 + nt_3_13 <= 0
 max_tubes_3_14: - 2 x_3_14 + nt_3_14 <= 0
 max_tubes_4_5: - 5 x_4_5 + nt_4_5 <= 0
 max_tubes_4_6: - 2 x_4_6 + nt_4_6 <= 0
 max_tubes_4_7: - 2 x_4_7 + nt_4_7 <= 0
 max_tubes_4_8: - 9 x_4_8 + nt_4_8 <= 0
 max_tubes_4_9: - 3 x_4_9 + nt_4_9 <= 0
 max_tubes_4_10: - 2 x_4_10 + nt_4_10 <= 0
 max_tubes_4_11: - 3 x_4_11 + nt_4_11 <= 0
 max_tubes_4_12: - 5 x_4_12 + nt_4_12 <= 0
 max_tubes_4_13: - 7 x_4_13 + nt_4_13 <= 0
 max_tubes_4_14: - 6 x_4_14 + nt_4_14 <= 0
 max_tubes_5_6: - 9 x_5_6 + nt_5_6 <= 0
 max_tubes_5_7: - 5 x_5_7 + nt_5_7 <= 0
 max_tubes_5_8: - 2 x_5_8 + nt_5_8 <= 0
 max_tubes_5_9: - 7 x_5_9 + nt_5_9 <= 0
 max_tubes_5_10: - 4 x_5_10 + nt_5_10 <= 0
 max_tubes_5_11: - 4 x_5_11 + nt_5_11 <= 0
 max_tubes_5_12: - 7 x_5_12 + nt_5_12 <= 0
 max_tubes_5_13: - 4 x_5_13 + nt_5_13 <= 0
 max_tubes_5_14: - 8 x_5_14 + nt_5_14 <= 0
 max_tubes_6_7: - 4 x_6_7 + nt_6_7 <= 0
 max_tubes_6_8: - 2 x_6_8 + nt_6_8 <= 0
 max_tubes_6_9: - 8 x_6_9 + nt_6_9 <= 0
 max_tubes_6_10: - 8 x_6_10 + nt_6_10 <= 0
 max_tubes_6_11: - 7 x_6_11 + nt_6_11 <= 0
 max_tubes_6_12: - 8 x_6_12 + nt_6_12 <= 0
 max_tubes_6_13: - 8 x_6_13 + nt_6_13 <= 0
 max_tubes_6_14: - 5 x_6_14 + nt_6_14 <= 0
 max_tubes_7_8: - 6 x_7_8 + nt_7_8 <= 0
 max_tubes_7_9: - 7 x_7_9 + nt_7_9 <= 0
 max_tubes_7_10: - 8 x_7_10 + nt_7_10 <= 0
 max_tubes_7_11: - 4 x_7_11 + nt_7_11 <= 0
 max_tubes_7_12: - 8 x_7_12 + nt_7_12 <= 0
 max_tubes_7_13: - 6 x_7_13 + nt_7_13 <= 0
 max_tubes_7_14: - 2 x_7_14 + nt_7_14 <= 0
 max_tubes_8_9: - 9 x_8_9 + nt_8_9 <= 0
 max_tubes_8_10: - 2 x_8_10 + nt_8_10 <= 0
 max_tubes_8_11: - 3 x_8_11 + nt_8_11 <= 0
 max_tubes_8_12: - 7 x_8_12 + nt_8_12 <= 0
 max_tubes_8_13: - 8 x_8_13 + nt_8_13 <= 0
 max_tubes_8_14: - 7 x_8_14 + nt_8_14 <= 0
 max_tubes_9_10: - 9 x_9_10 + nt_9_10 <= 0
 max_tubes_9_11: - 4 x_9_11 + nt_9_11 <= 0
 max_tubes_9_12: - 2 x_9_12 + nt_9_12 <= 0
 max_tubes_9_13: - 6 x_9_13 + nt_9_13 <= 0
 max_tubes_9_14: - 3 x_9_14 + nt_9_14 <= 0
 max_tubes_10_11: - 3 x_10_11 + nt_10_11 <= 0
 max_tubes_10_12: - 5 x_10_12 + nt_10_12 <= 0
 max_tubes_10_13: - 3 x_10_13 + nt_10_13 <= 0
 max_tubes_10_14: - 8 x_10_14 + nt_10_14 <= 0
 max_tubes_11_12: - 3 x_11_12 + nt_11_12 <= 0
 max_tubes_11_13: - 2 x_11_13 + nt_11_13 <= 0
 max_tubes_11_14: - 7 x_11_14 + nt_11_14 <= 0
 max_tubes_12_13: - 4 x_12_13 + nt_12_13 <= 0
 max_tubes_12_14: - 9 x_12_14 + nt_12_14 <= 0
 max_tubes_13_14: - 3 x_13_14 + nt_13_14 <= 0
 min_tubes_1_2: - x_1_2 + nt_1_2 >= 0
 min_tubes_1_3: - x_1_3 + nt_1_3 >= 0
 min_tubes_1_4: - x_1_4 + nt_1_4 >= 0
 min_tubes_1_5: - x_1_5 + nt_1_5 >= 0
 min_tubes_1_6: - x_1_6 + nt_1_6 >= 0
 min_tubes_1_7: - x_1_7 + nt_1_7 >= 0
 min_tubes_1_8: - x_1_8 + nt_1_8 >= 0
 min_tubes_1_9: - x_1_9 + nt_1_9 >= 0
 min_tubes_1_10: - x_1_10 + nt_1_10 >= 0
 min_tubes_1_11: - x_1_11 + nt_1_11 >= 0
 min_tubes_1_12: - x_1_12 + nt_1_12 >= 0
 min_tubes_1_13: - x_1_13 + nt_1_13 >= 0
 min_tubes_1_14: - x_1_14 + nt_1_14 >= 0
 min_tubes_2_3: - x_2_3 + nt_2_3 >= 0
 min_tubes_2_4: - x_2_4 + nt_2_4 >= 0
 min_tubes_2_5: - x_2_5 + nt_2_5 >= 0
 min_tubes_2_6: - x_2_6 + nt_2_6 >= 0
 min_tubes_2_7: - x_2_7 + nt_2_7 >= 0
 min_tubes_2_8: - x_2_8 + nt_2_8 >= 0
 min_tubes_2_9: - x_2_9 + nt_2_9 >= 0
 min_tubes_2_10: - x_2_10 + nt_2_10 >= 0
 min_tubes_2_11: - x_2_11 + nt_2_11 >= 0
 min_tubes_2_12: - x_2_12 + nt_2_12 >= 0
 min_tubes_2_13: - x_2_13 + nt_2_13 >= 0
 min_tubes_2_14: - x_2_14 + nt_2_14 >= 0
 min_tubes_3_4: - x_3_4 + nt_3_4 >= 0
 min_tubes_3_5: - x_3_5 + nt_3_5 >= 0
 min_tubes_3_6: - x_3_6 + nt_3_6 >= 0
 min_tubes_3_7: - x_3_7 + nt_3_7 >= 0
 min_tubes_3_8: - x_3_8 + nt_3_8 >= 0
 min_tubes_3_9: - x_3_9 + nt_3_9 >= 0
 min_tubes_3_10: - x_3_10 + nt_3_10 >= 0
 min_tubes_3_11: - x_3_11 + nt_3_11 >= 0
 min_tubes_3_12: - x_3_12 + nt_3_12 >= 0
 min_tubes_3_13: - x_3_13 + nt_3_13 >= 0
 min_tubes_3_14: - x_3_14 + nt_3_14 >= 0
 min_tubes_4_5: - x_4_5 + nt_4_5 >= 0
 min_tubes_4_6: - x_4_6 + nt_4_6 >= 0
 min_tubes_4_7: - x_4_7 + nt_4_7 >= 0
 min_tubes_4_8: - x_4_8 + nt_4_8 >= 0
 min_tubes_4_9: - x_4_9 + nt_4_9 >= 0
 min_tubes_4_10: - x_4_10 + nt_4_10 >= 0
 min_tubes_4_11: - x_4_11 + nt_4_11 >= 0
 min_tubes_4_12: - x_4_12 + nt_4_12 >= 0
 min_tubes_4_13: - x_4_13 + nt_4_13 >= 0
 min_tubes_4_14: - x_4_14 + nt_4_14 >= 0
 min_tubes_5_6: - x_5_6 + nt_5_6 >= 0
 min_tubes_5_7: - x_5_7 + nt_5_7 >= 0
 min_tubes_5_8: - x_5_8 + nt_5_8 >= 0
 min_tubes_5_9: - x_5_9 + nt_5_9 >= 0
 min_tubes_5_10: - x_5_10 + nt_5_10 >= 0
 min_tubes_5_11: - x_5_11 + nt_5_11 >= 0
 min_tubes_5_12: - x_5_12 + nt_5_12 >= 0
 min_tubes_5_13: - x_5_13 + nt_5_13 >= 0
 min_tubes_5_14: - x_5_14 + nt_5_14 >= 0
 min_tubes_6_7: - x_6_7 + nt_6_7 >= 0
 min_tubes_6_8: - x_6_8 + nt_6_8 >= 0
 min_tubes_6_9: - x_6_9 + nt_6_9 >= 0
 min_tubes_6_10: - x_6_10 + nt_6_10 >= 0
 min_tubes_6_11: - x_6_11 + nt_6_11 >= 0
 min_tubes_6_12: - x_6_12 + nt_6_12 >= 0
 min_tubes_6_13: - x_6_13 + nt_6_13 >= 0
 min_tubes_6_14: - x_6_14 + nt_6_14 >= 0
 min_tubes_7_8: - x_7_8 + nt_7_8 >= 0
 min_tubes_7_9: - x_7_9 + nt_7_9 >= 0
 min_tubes_7_10: - x_7_10 + nt_7_10 >= 0
 min_tubes_7_11: - x_7_11 + nt_7_11 >= 0
 min_tubes_7_12: - x_7_12 + nt_7_12 >= 0
 min_tubes_7_13: - x_7_13 + nt_7_13 >= 0
 min_tubes_7_14: - x_7_14 + nt_7_14 >= 0
 min_tubes_8_9: - x_8_9 + nt_8_9 >= 0
 min_tubes_8_10: - x_8_10 + nt_8_10 >= 0
 min_tubes_8_11: - x_8_11 + nt_8_11 >= 0
 min_tubes_8_12: - x_8_12 + nt_8_12 >= 0
 min_tubes_8_13: - x_8_13 + nt_8_13 >= 0
 min_tubes_8_14: - x_8_14 + nt_8_14 >= 0
 min_tubes_9_10: - x_9_10 + nt_9_10 >= 0
 min_tubes_9_11: - x_9_11 + nt_9_11 >= 0
 min_tubes_9_12: - x_9_12 + nt_9_12 >= 0
 min_tubes_9_13: - x_9_13 + nt_9_13 >= 0
 min_tubes_9_14: - x_9_14 + nt_9_14 >= 0
 min_tubes_10_11: - x_10_11 + nt_10_11 >= 0
 min_tubes_10_12: - x_10_12 + nt_10_12 >= 0
 min_tubes_10_13: - x_10_13 + nt_10_13 >= 0
 min_tubes_10_14: - x_10_14 + nt_10_14 >= 0
 min_tubes_11_12: - x_11_12 + nt_11_12 >= 0
 min_tubes_11_13: - x_11_13 + nt_11_13 >= 0
 min_tubes_11_14: - x_11_14 + nt_11_14 >= 0
 min_tubes_12_13: - x_12_13 + nt_12_13 >= 0
 min_tubes_12_14: - x_12_14 + nt_12_14 >= 0
 min_tubes_13_14: - x_13_14 + nt_13_14 >= 0
 max_vehicles_1_2: - 2 nt_1_2 + nv_1_2 <= 0
 max_vehicles_1_3: - 2 nt_1_3 + nv_1_3 <= 0
 max_vehicles_1_4: - 2 nt_1_4 + nv_1_4 <= 0
 max_vehicles_1_5: - 2 nt_1_5 + nv_1_5 <= 0
 max_vehicles_1_6: - 2 nt_1_6 + nv_1_6 <= 0
 max_vehicles_1_7: - 2 nt_1_7 + nv_1_7 <= 0
 max_vehicles_1_8: - 2 nt_1_8 + nv_1_8 <= 0
 max_vehicles_1_9: - 2 nt_1_9 + nv_1_9 <= 0
 max_vehicles_1_10: - 2 nt_1_10 + nv_1_10 <= 0
 max_vehicles_1_11: - 2 nt_1_11 + nv_1_11 <= 0
 max_vehicles_1_12: - 2 nt_1_12 + nv_1_12 <= 0
 max_vehicles_1_13: - 2 nt_1_13 + nv_1_13 <= 0
 max_vehicles_1_14: - 2 nt_1_14 + nv_1_14 <= 0
 max_vehicles_2_3: - 2 nt_2_3 + nv_2_3 <= 0
 max_vehicles_2_4: - 2 nt_2_4 + nv_2_4 <= 0
 max_vehicles_2_5: - 2 nt_2_5 + nv_2_5 <= 0
 max_vehicles_2_6: - 2 nt_2_6 + nv_2_6 <= 0
 max_vehicles_2_7: - 2 nt_2_7 + nv_2_7 <= 0
 max_vehicles_2_8: - 2 nt_2_8 + nv_2_8 <= 0
 max_vehicles_2_9: - 2 nt_2_9 + nv_2_9 <= 0
 max_vehicles_2_10: - 2 nt_2_10 + nv_2_10 <= 0
 max_vehicles_2_11: - 2 nt_2_11 + nv_2_11 <= 0
 max_vehicles_2_12: - 2 nt_2_12 + nv_2_12 <= 0
 max_vehicles_2_13: - 2 nt_2_13 + nv_2_13 <= 0
 max_vehicles_2_14: - 2 nt_2_14 + nv_2_14 <= 0
 max_vehicles_3_4: - 2 nt_3_4 + nv_3_4 <= 0
 max_vehicles_3_5: - 2 nt_3_5 + nv_3_5 <= 0
 max_vehicles_3_6: - 2 nt_3_6 + nv_3_6 <= 0
 max_vehicles_3_7: - 2 nt_3_7 + nv_3_7 <= 0
 max_vehicles_3_8: - 2 nt_3_8 + nv_3_8 <= 0
 max_vehicles_3_9: - 2 nt_3_9 + nv_3_9 <= 0
 max_vehicles_3_10: - 2 nt_3_10 + nv_3_10 <= 0
 max_vehicles_3_11: - 2 nt_3_11 + nv_3_11 <= 0
 max_vehicles_3_12: - 2 nt_3_12 + nv_3_12 <= 0
 max_vehicles_3_13: - 2 nt_3_13 + nv_3_13 <= 0
 max_vehicles_3_14: - 2 nt_3_14 + nv_3_14 <= 0
 max_vehicles_4_5: - 2 nt_4_5 + nv_4_5 <= 0
 max_vehicles_4_6: - 2 nt_4_6 + nv_4_6 <= 0
 max_vehicles_4_7: - 2 nt_4_7 + nv_4_7 <= 0
 max_vehicles_4_8: - 2 nt_4_8 + nv_4_8 <= 0
 max_vehicles_4_9: - 2 nt_4_9 + nv_4_9 <= 0
 max_vehicles_4_10: - 2 nt_4_10 + nv_4_10 <= 0
 max_vehicles_4_11: - 2 nt_4_11 + nv_4_11 <= 0
 max_vehicles_4_12: - 2 nt_4_12 + nv_4_12 <= 0
 max_vehicles_4_13: - 2 nt_4_13 + nv_4_13 <= 0
 max_vehicles_4_14: - 2 nt_4_14 + nv_4_14 <= 0
 max_vehicles_5_6: - 2 nt_5_6 + nv_5_6 <= 0
 max_vehicles_5_7: - 2 nt_5_7 + nv_5_7 <= 0
 max_vehicles_5_8: - 2 nt_5_8 + nv_5_8 <= 0
 max_vehicles_5_9: - 2 nt_5_9 + nv_5_9 <= 0
 max_vehicles_5_10: - 2 nt_5_10 + nv_5_10 <= 0
 max_vehicles_5_11: - 2 nt_5_11 + nv_5_11 <= 0
 max_vehicles_5_12: - 2 nt_5_12 + nv_5_12 <= 0
 max_vehicles_5_13: - 2 nt_5_13 + nv_5_13 <= 0
 max_vehicles_5_14: - 2 nt_5_14 + nv_5_14 <= 0
 max_vehicles_6_7: - 2 nt_6_7 + nv_6_7 <= 0
 max_vehicles_6_8: - 2 nt_6_8 + nv_6_8 <= 0
 max_vehicles_6_9: - 2 nt_6_9 + nv_6_9 <= 0
 max_vehicles_6_10: - 2 nt_6_10 + nv_6_10 <= 0
 max_vehicles_6_11: - 2 nt_6_11 + nv_6_11 <= 0
 max_vehicles_6_12: - 2 nt_6_12 + nv_6_12 <= 0
 max_vehicles_6_13: - 2 nt_6_13 + nv_6_13 <= 0
 max_vehicles_6_14: - 2 nt_6_14 + nv_6_14 <= 0
 max_vehicles_7_8: - 2 nt_7_8 + nv_7_8 <= 0
 max_vehicles_7_9: - 2 nt_7_9 + nv_7_9 <= 0
 max_vehicles_7_10: - 2 nt_7_10 + nv_7_10 <= 0
 max_vehicles_7_11: - 2 nt_7_11 + nv_7_11 <= 0
 max_vehicles_7_12: - 2 nt_7_12 + nv_7_12 <= 0
 max_vehicles_7_13: - 2 nt_7_13 + nv_7_13 <= 0
 max_vehicles_7_14: - 2 nt_7_14 + nv_7_14 <= 0
 max_vehicles_8_9: - 2 nt_8_9 + nv_8_9 <= 0
 max_vehicles_8_10: - 2 nt_8_10 + nv_8_10 <= 0
 max_vehicles_8_11: - 2 nt_8_11 + nv_8_11 <= 0
 max_vehicles_8_12: - 2 nt_8_12 + nv_8_12 <= 0
 max_vehicles_8_13: - 2 nt_8_13 + nv_8_13 <= 0
 max_vehicles_8_14: - 2 nt_8_14 + nv_8_14 <= 0
 max_vehicles_9_10: - 2 nt_9_10 + nv_9_10 <= 0
 max_vehicles_9_11: - 2 nt_9_11 + nv_9_11 <= 0
 max_vehicles_9_12: - 2 nt_9_12 + nv_9_12 <= 0
 max_vehicles_9_13: - 2 nt_9_13 + nv_9_13 <= 0
 max_vehicles_9_14: - 2 nt_9_14 + nv_9_14 <= 0
 max_vehicles_10_11: - 2 nt_10_11 + nv_10_11 <= 0
 max_vehicles_10_12: - 2 nt_10_12 + nv_10_12 <= 0
 max_vehicles_10_13: - 2 nt_10_13 + nv_10_13 <= 0
 max_vehicles_10_14: - 2 nt_10_14 + nv_10_14 <= 0
 max_vehicles_11_12: - 2 nt_11_12 + nv_11_12 <= 0
 max_vehicles_11_13: - 2 nt_11_13 + nv_11_13 <= 0
 max_vehicles_11_14: - 2 nt_11_14 + nv_11_14 <= 0
 max_vehicles_12_13: - 2 nt_12_13 + nv_12_13 <= 0
 max_vehicles_12_14: - 2 nt_12_14 + nv_12_14 <= 0
 max_vehicles_13_14: - 2 nt_13_14 + nv_13_14 <= 0
 max_passengers_1_2: pax_1_2 - 6 nv_1_2 <= 0
 max_passengers_1_3: pax_1_3 - 6 nv_1_3 <= 0
 max_passengers_1_4: pax_1_4 - 6 nv_1_4 <= 0
 max_passengers_1_5: pax_1_5 - 6 nv_1_5 <= 0
 max_passengers_1_6: pax_1_6 - 6 nv_1_6 <= 0
 max_passengers_1_7: pax_1_7 - 6 nv_1_7 <= 0
 max_passengers_1_8: pax_1_8 - 6 nv_1_8 <= 0
 max_passengers_1_9: pax_1_9 - 6 nv_1_9 <= 0
 max_passengers_1_10: pax_1_10 - 6 nv_1_10 <= 0
 max_passengers_1_11: pax_1_11 - 6 nv_1_11 <= 0
 max_passengers_1_12: pax_1_12 - 6 nv_1_12 <= 0
 max_passengers_1_13: pax_1_13 - 6 nv_1_13 <= 0
 max_passengers_1_14: pax_1_14 - 6 nv_1_14 <= 0
 max_passengers_2_3: pax_2_3 - 6 nv_2_3 <= 0
 max_passengers_2_4: pax_2_4 - 6 nv_2_4 <= 0
 max_passengers_2_5: pax_2_5 - 6 nv_2_5 <= 0
 max_passengers_2_6: pax_2_6 - 6 nv_2_6 <= 0
 max_passengers_2_7: pax_2_7 - 6 nv_2_7 <= 0
 max_passengers_2_8: pax_2_8 - 6 nv_2_8 <= 0
 max_passengers_2_9: pax_2_9 - 6 nv_2_9 <= 0
 max_passengers_2_10: pax_2_10 - 6 nv_2_10 <= 0
 max_passengers_2_11: pax_2_11 - 6 nv_2_11 <= 0
 max_passengers_2_12: pax_2_12 - 6 nv_2_12 <= 0
 max_passengers_2_13: pax_2_13 - 6 nv_2_13 <= 0
 max_passengers_2_14: pax_2_14 - 6 nv_2_14 <= 0
 max_passengers_3_4: pax_3_4 - 6 nv_3_4 <= 0
 max_passengers_3_5: pax_3_5 - 6 nv_3_5 <= 0
 max_passengers_3_6: pax_3_6 - 6 nv_3_6 <= 0
 max_passengers_3_7: pax_3_7 - 6 nv_3_7 <= 0
 max_passengers_3_8: pax_3_8 - 6 nv_3_8 <= 0
 max_passengers_3_9: pax_3_9 - 6 nv_3_9 <= 0
 max_passengers_3_10: pax_3_10 - 6 nv_3_10 <= 0
 max_passengers_3_11: pax_3_11 - 6 nv_3_11 <= 0
 max_passengers_3_12: pax_3_12 - 6 nv_3_12 <= 0
 max_passengers_3_13: pax_3_13 - 6 nv_3_13 <= 0
 max_passengers_3_14: pax_3_14 - 6 nv_3_14 <= 0
 max_passengers_4_5: pax_4_5 - 6 nv_4_5 <= 0
 max_passengers_4_6: pax_4_6 - 6 nv_4_6 <= 0
 max_passengers_4_7: pax_4_7 - 6 nv_4_7 <= 0
 max_passengers_4_8: pax_4_8 - 6 nv_4_8 <= 0
 max_passengers_4_9: pax_4_9 - 6 nv_4_9 <= 0
 max_passengers_4_10: pax_4_10 - 6 nv_4_10 <= 0
 max_passengers_4_11: pax_4_11 - 6 nv_4_11 <= 0
 max_passengers_4_12: pax_4_12 - 6 nv_4_12 <= 0
 max_passengers_4_13: pax_4_13 - 6 nv_4_13 <= 0
 max_passengers_4_14: pax_4_14 - 6 nv_4_14 <= 0
 max_passengers_5_6: pax_5_6 - 6 nv_5_6 <= 0
 max_passengers_5_7: pax_5_7 - 6 nv_5_7 <= 0
 max_passengers_5_8: pax_5_8 - 6 nv_5_8 <= 0
 max_passengers_5_9: pax_5_9 - 6 nv_5_9 <= 0
 max_passengers_5_10: pax_5_10 - 6 nv_5_10 <= 0
 max_passengers_5_11: pax_5_11 - 6 nv_5_11 <= 0
 max_passengers_5_12: pax_5_12 - 6 nv_5_12 <= 0
 max_passengers_5_13: pax_5_13 - 6 nv_5_13 <= 0
 max_passengers_5_14: pax_5_14 - 6 nv_5_14 <= 0
 max_passengers_6_7: pax_6_7 - 6 nv_6_7 <= 0
 max_passengers_6_8: pax_6_8 - 6 nv_6_8 <= 0
 max_passengers_6_9: pax_6_9 - 6 nv_6_9 <= 0
 max_passengers_6_10: pax_6_10 - 6 nv_6_10 <= 0
 max_passengers_6_11: pax_6_11 - 6 nv_6_11 <= 0
 max_passengers_6_12: pax_6_12 - 6 nv_6_12 <= 0
 max_passengers_6_13: pax_6_13 - 6 nv_6_13 <= 0
 max_passengers_6_14: pax_6_14 - 6 nv_6_14 <= 0
 max_passengers_7_8: pax_7_8 - 6 nv_7_8 <= 0
 max_passengers_7_9: pax_7_9 - 6 nv_7_9 <= 0
 max_passengers_7_10: pax_7_10 - 6 nv_7_10 <= 0
 max_passengers_7_11: pax_7_11 - 6 nv_7_11 <= 0
 max_passengers_7_12: pax_7_12 - 6 nv_7_12 <= 0
 max_passengers_7_13: pax_7_13 - 6 nv_7_13 <= 0
 max_passengers_7_14: pax_7_14 - 6 nv_7_14 <= 0
 max_passengers_8_9: pax_8_9 - 6 nv_8_9 <= 0
 max_passengers_8_10: pax_8_10 - 6 nv_8_10 <= 0
 max_passengers_8_11: pax_8_11 - 6 nv_8_11 <= 0
 max_passengers_8_12: pax_8_12 - 6 nv_8_12 <= 0
 max_passengers_8_13: pax_8_13 - 6 nv_8_13 <= 0
 max_passengers_8_14: pax_8_14 - 6 nv_8_14 <= 0
 max_passengers_9_10: pax_9_10 - 6 nv_9_10 <= 0
 max_passengers_9_11: pax_9_11 - 6 nv_9_11 <= 0
 max_passengers_9_12: pax_9_12 - 6 nv_9_12 <= 0
 max_passengers_9_13: pax_9_13 - 6 nv_9_13 <= 0
 max_passengers_9_14: pax_9_14 - 6 nv_9_14 <= 0
 max_passengers_10_11: pax_10_11 - 6 nv_10_11 <= 0
 max_passengers_10_12: pax_10_12 - 6 nv_10_12 <= 0
 max_passengers_10_13: pax_10_13 - 6 nv_10_13 <= 0
 max_passengers_10_14: pax_10_14 - 6 nv_10_14 <= 0
 max_passengers_11_12: pax_11_12 - 6 nv_11_12 <= 0
 max_passengers_11_13: pax_11_13 - 6 nv_11_13 <= 0
 max_passengers_11_14: pax_11_14 - 6 nv_11_14 <= 0
 max_passengers_12_13: pax_12_13 - 6 nv_12_13 <= 0
 max_passengers_12_14: pax_12_14 - 6 nv_12_14 <= 0
 max_passengers_13_14: pax_13_14 - 6 nv_13_14 <= 0
 node_connected_1: - x_1_2 - x_1_3 - x_1_4 - x_1_5 - x_1_6 - x_1_7 - x_1_8
   - x_1_9 - x_1_10 - x_1_11 - x_1_12 - x_1_13 - x_1_14 <= -1
 node_connected_2: - x_1_2 - x_2_3 - x_2_4 - x_2_5 - x_2_6 - x_2_7 - x_2_8
   - x_2_9 - x_2_10 - x_2_11 - x_2_12 - x_2_13 - x_2_14 <= -1
 node_connected_3: - x_1_3 - x_2_3 - x_3_4 - x_3_5 - x_3_6 - x_3_7 - x_3_8
   - x_3_9 - x_3_10 - x_3_11 - x_3_12 - x_3_13 - x_3_14 <= -1
 node_connected_4: - x_1_4 - x_2_4 - x_3_4 - x_4_5 - x_4_6 - x_4_7 - x_4_8
   - x_4_9 - x_4_10 - x_4_11 - x_4_12 - x_4_13 - x_4_14 <= -1
 node_connected_5: - x_1_5 - x_2_5 - x_3_5 - x_4_5 - x_5_6 - x_5_7 - x_5_8
   - x_5_9 - x_5_10 - x_5_11 - x_5_12 - x_5_13 - x_5_14 <= -1
 node_connected_6: - x_1_6 - x_2_6 - x_3_6 - x_4_6 - x_5_6 - x_6_7 - x_6_8
   - x_6_9 - x_6_10 - x_6_11 - x_6_12 - x_6_13 - x_6_14 <= -1
 node_connected_7: - x_1_7 - x_2_7 - x_3_7 - x_4_7 - x_5_7 - x_6_7 - x_7_8
   - x_7_9 - x_7_10 - x_7_11 - x_7_12 - x_7_13 - x_7_14 <= -1
 node_connected_8: - x_1_8 - x_2_8 - x_3_8 - x_4_8 - x_5_8 - x_6_8 - x_7_8
   - x_8_9 - x_8_10 - x_8_11 - x_8_12 - x_8_13 - x_8_14 <= -1
 node_connected_9: - x_1_9 - x_2_9 - x_3_9 - x_4_9 - x_5_9 - x_6_9 - x_7_9
   - x_8_9 - x_9_10 - x_9_11 - x_9_12 - x_9_13 - x_9_14 <= -1
 node_connected_10: - x_1_10 - x_2_10 - x_3_10 - x_4_10 - x_5_10 - x_6_10
   - x_7_10 - x_8_10 - x_9_10 - x_10_11 - x_10_12 - x_10_13 - x_10_14
   <= -1
 node_connected_11: - x_1_11 - x_2_11 - x_3_11 - x_4_11 - x_5_11 - x_6_11
   - x_7_11 - x_8_11 - x_9_11 - x_10_11 - x_11_12 - x_11_13 - x_11_14
   <= -1
 node_connected_12: - x_1_12 - x_2_12 - x_3_12 - x_4_12 - x_5_12 - x_6_12
   - x_7_12 - x_8_12 - x_9_12 - x_10_12 - x_11_12 - x_12_13 - x_12_14
   <= -1
 node_connected_13: - x_1_13 - x_2_13 - x_3_13 - x_4_13 - x_5_13 - x_6_13
   - x_7_13 - x_8_13 - x_9_13 - x_10_13 - x_11_13 - x_12_13 - x_13_14
   <= -1
 node_connected_14: - x_1_14 - x_2_14 - x_3_14 - x_4_14 - x_5_14 - x_6_14
   - x_7_14 - x_8_14 - x_9_14 - x_10_14 - x_11_14 - x_12_14 - x_13_14
   <= -1
 min_amount_links: x_1_2 + x_1_3 + x_1_4 + x_1_5 + x_1_6 + x_1_7 + x_1_8
   + x_1_9 + x_1_10 + x_1_11 + x_1_12 + x_1_13 + x_1_14 + x_2_3 + x_2_4
   + x_2_5 + x_2_6 + x_2_7 + x_2_8 + x_2_9 + x_2_10 + x_2_11 + x_2_12
   + x_2_13 + x_2_14 + x_3_4 + x_3_5 + x_3_6 + x_3_7 + x_3_8 + x_3_9
   + x_3_10 + x_3_11 + x_3_12 + x_3_13 + x_3_14 + x_4_5 + x_4_6 + x_4_7
   + x_4_8 + x_4_9 + x_4_10 + x_4_11 + x_4_12 + x_4_13 + x_4_14 + x_5_6
   + x_5_7 + x_5_8 + x_5_9 + x_5_10 + x_5_11 + x_5_12 + x_5_13 + x_5_14
   + x_6_7 + x_6_8 + x_6_9 + x_6_10 + x_6_11 + x_6_12 + x_6_13 + x_6_14
   + x_7_8 + x_7_9 + x_7_10 + x_7_11 + x_7_12 + x_7_13 + x_7_14 + x_8_9
   + x_8_10 + x_8_11 + x_8_12 + x_8_13 + x_8_14 + x_9_10 + x_9_11 + x_9_12
   + x_9_13 + x_9_14 + x_10_11 + x_10_12 + x_10_13 + x_10_14 + x_11_12
   + x_11_13 + x_11_14 + x_12_13 + x_12_14 + x_13_14 = 13
Bounds
 pax_1_2 <= 2.437e+06
 pax_1_3 <= 2.411e+06
 pax_1_4 <= 2.046e+06
 pax_1_5 <= 1.804053e+06
 pax_1_6 <= 1.755957e+06
 pax_1_7 <= 1.622688e+06
 pax_1_8 <= 1.547674e+06
 pax_1_9 <= 1.54052e+06
 pax_1_10 <= 1.531778e+06
 pax_1_11 <= 1.528378e+06
 pax_1_12 <= 1.517805e+06
 pax_1_13 <= 1.468237e+06
 pax_1_14 <= 1.452485e+06
 pax_2_3 <= 2.036e+06
 pax_2_4 <= 1.671e+06
 pax_2_5 <= 1.429053e+06
 pax_2_6 <= 1.380957e+06
 pax_2_7 <= 1.247688e+06
 pax_2_8 <= 1.172674e+06
 pax_2_9 <= 1.16552e+06
 pax_2_10 <= 1.156778e+06
 pax_2_11 <= 1.153378e+06
 pax_2_12 <= 1.142805e+06
 pax_2_13 <= 1.093237e+06
 pax_2_14 <= 1.077485e+06
 pax_3_4 <= 1.645e+06
 pax_3_5 <= 1.403053e+06
 pax_3_6 <= 1.354957e+06
 pax_3_7 <= 1.221688e+06
 pax_3_8 <= 1.146674e+06
 pax_3_9 <= 1.13952e+06
 pax_3_10 <= 1.130778e+06
 pax_3_11 <= 1.127378e+06
 pax_3_12 <= 1.116805e+06
 pax_3_13 <= 1.067237e+06
 pax_3_14 <= 1.051485e+06
 pax_4_5 <= 1.038053e+06
 pax_4_6 <= 989957
 pax_4_7 <= 856688
 pax_4_8 <= 781674
 pax_4_9 <= 774520
 pax_4_10 <= 765778
 pax_4_11 <= 762378
 pax_4_12 <= 751805
 pax_4_13 <= 702237
 pax_4_14 <= 686485
 pax_5_6 <= 748010
 pax_5_7 <= 614741
 pax_5_8 <= 539727
 pax_5_9 <= 532573
 pax_5_10 <= 523831
 pax_5_11 <= 520431
 pax_5_12 <= 509858
 pax_5_13 <= 460290
 pax_5_14 <= 444538
 pax_6_7 <= 566645
 pax_6_8 <= 491631
 pax_6_9 <= 484477
 pax_6_10 <= 475735
 pax_6_11 <= 472335
 pax_6_12 <= 461762
 pax_6_13 <= 412194
 pax_6_14 <= 396442
 pax_7_8 <= 358362
 pax_7_9 <= 351208
 pax_7_10 <= 342466
 pax_7_11 <= 339066
 pax_7_12 <= 328493
 pax_7_13 <= 278925
 pax_7_14 <= 263173
 pax_8_9 <= 276194
 pax_8_10 <= 267452
 pax_8_11 <= 264052
 pax_8_12 <= 253479
 pax_8_13 <= 203911
 pax_8_14 <= 188159
 pax_9_10 <= 260298
 pax_9_11 <= 256898
 pax_9_12 <= 246325
 pax_9_13 <= 196757
 pax_9_14 <= 181005
 pax_10_11 <= 248156
 pax_10_12 <= 237583
 pax_10_13 <= 188015
 pax_10_14 <= 172263
 pax_11_12 <= 234183
 pax_11_13 <= 184615
 pax_11_14 <= 168863
 pax_12_13 <= 174042
 pax_12_14 <= 158290
 pax_13_14 <= 108722
Binaries
 x_1_2 x_1_3 x_1_4 x_1_5 x_1_6 x_1_7 x_1_8 x_1_9 x_1_10 x_1_11 x_1_12
 x_1_13 x_1_14 x_2_3 x_2_4 x_2_5 x_2_6 x_2_7 x_2_8 x_2_9 x_2_10 x_2_11
 x_2_12 x_2_13 x_2_14 x_3_4 x_3_5 x_3_6 x_3_7 x_3_8 x_3_9 x_3_10 x_3_11
 x_3_12 x_3_13 x_3_14 x_4_5 x_4_6 x_4_7 x_4_8 x_4_9 x_4_10 x_4_11 x_4_12
 x_4_13 x_4_14 x_5_6 x_5_7 x_5_8 x_5_9 x_5_10 x_5_11 x_5_12 x_5_13 x_5_14
 x_6_7 x_6_8 x_6_9 x_6_10 x_6_11 x_6_12 x_6_13 x_6_14 x_7_8 x_7_9 x_7_10
 x_7_11 x_7_12 x_7_13 x_7_14 x_8_9 x_8_10 x_8_11 x_8_12 x_8_13 x_8_14
 x_9_10 x_9_11 x_9_12 x_9_13 x_9_14 x_10_11 x_10_12 x_10_13 x_10_14 x_11_12
 x_11_13 x_11_14 x_12_13 x_12_14 x_13_14
Generals
 pax_1_2 pax_1_3 pax_1_4 pax_1_5 pax_1_6 pax_1_7 pax_1_8 pax_1_9 pax_1_10
 pax_1_11 pax_1_12 pax_1_13 pax_1_14 pax_2_3 pax_2_4 pax_2_5 pax_2_6
 pax_2_7 pax_2_8 pax_2_9 pax_2_10 pax_2_11 pax_2_12 pax_2_13 pax_2_14
 pax_3_4 pax_3_5 pax_3_6 pax_3_7 pax_3_8 pax_3_9 pax_3_10 pax_3_11 pax_3_12
 pax_3_13 pax_3_14 pax_4_5 pax_4_6 pax_4_7 pax_4_8 pax_4_9 pax_4_10
 pax_4_11 pax_4_12 pax_4_13 pax_4_14 pax_5_6 pax_5_7 pax_5_8 pax_5_9
 pax_5_10 pax_5_11 pax_5_12 pax_5_13 pax_5_14 pax_6_7 pax_6_8 pax_6_9
 pax_6_10 pax_6_11 pax_6_12 pax_6_13 pax_6_14 pax_7_8 pax_7_9 pax_7_10
 pax_7_11 pax_7_12 pax_7_13 pax_7_14 pax_8_9 pax_8_10 pax_8_11 pax_8_12
 pax_8_13 pax_8_14 pax_9_10 pax_9_11 pax_9_12 pax_9_13 pax_9_14 pax_10_11
 pax_10_12 pax_10_13 pax_10_14 pax_11_12 pax_11_13 pax_11_14 pax_12_13
 pax_12_14 pax_13_14 nt_1_2 nt_1_3 nt_1_4 nt_1_5 nt_1_6 nt_1_7 nt_1_8
 nt_1_9 nt_1_10 nt_1_11 nt_1_12 nt_1_13 nt_1_14 nt_2_3 nt_2_4 nt_2_5 nt_2_6
 nt_2_7 nt_2_8 nt_2_9 nt_2_10 nt_2_11 nt_2_12 nt_2_13 nt_2_14 nt_3_4 nt_3_5
 nt_3_6 nt_3_7 nt_3_8 nt_3_9 nt_3_10 nt_3_11 nt_3_12 nt_3_13 nt_3_14 nt_4_5
 nt_4_6 nt_4_7 nt_4_8 nt_4_9 nt_4_10 nt_4_11 nt_4_12 nt_4_13 nt_4_14 nt_5_6
 nt_5_7 nt_5_8 nt_5_9 nt_5_10 nt_5_11 nt_5_12 nt_5_13 nt_5_14 nt_6_7 nt_6_8
 nt_6_9 nt_6_10 nt_6_11 nt_6_12 nt_6_13 nt_6_14 nt_7_8 nt_7_9 nt_7_10
 nt_7_11 nt_7_12 nt_7_13 nt_7_14 nt_8_9 nt_8_10 nt_8_11 nt_8_12 nt_8_13
 nt_8_14 nt_9_10 nt_9_11 nt_9_12 nt_9_13 nt_9_14 nt_10_11 nt_10_12 nt_10_13
 nt_10_14 nt_11_12 nt_11_13 nt_11_14 nt_12_13 nt_12_14 nt_13_14 nv_1_2
 nv_1_3 nv_1_4 nv_1_5 nv_1_6 nv_1_7 nv_1_8 nv_1_9 nv_1_10 nv_1_11 nv_1_12
 nv_1_13 nv_1_14 nv_2_3 nv_2_4 nv_2_5 nv_2_6 nv_2_7 nv_2_8 nv_2_9 nv_2_10
 nv_2_11 nv_2_12 nv_2_13 nv_2_14 nv_3_4 nv_3_5 nv_3_6 nv_3_7 nv_3_8 nv_3_9
 nv_3_10 nv_3_11 nv_3_12 nv_3_13 nv_3_14 nv_4_5 nv_4_6 nv_4_7 nv_4_8 nv_4_9
 nv_4_10 nv_4_11 nv_4_12 nv_4_13 nv_4_14 nv_5_6 nv_5_7 nv_5_8 nv_5_9
 nv_5_10 nv_5_11 nv_5_12 nv_5_13 nv_5_14 nv_6_7 nv_6_8 nv_6_9 nv_6_10
 nv_6_11 nv_6_12 nv_6_13 nv_6_14 nv_7_8 nv_7_9 nv_7_10 nv_7_11 nv_7_12
 nv_7_13 nv_7_14 nv_8_9 nv_8_10 nv_8_11 nv_8_12 nv_8_13 nv_8_14 nv_9_10
 nv_9_11 nv_9_12 nv_9_13 nv_9_14 nv_10_11 nv_10_12 nv_10_13 nv_10_14
 nv_11_12 nv_11_13 nv_11_14 nv_12_13 nv_12_14 nv_13_14
End
